<instance format="XCSP3" type="COP">
  <variables>
    <array id="s" note="Start time of operation j for job i" size="[7][7]"> 0..559 </array>
    <array id="e" note="End time of last operation of job i" size="[7]"> 0..559 </array>
    <array id="d" note="Duration of operation j for job i" size="[7][7]">
      <domain for="d[0][]"> 31 32 43 67 71 72 </domain>
      <domain for="d[1][]"> 13 35 41 47 60 66 72 </domain>
      <domain for="d[2][]"> 6 15 23 44 46 73 94 </domain>
      <domain for="d[3][]"> 20 42 50 69 90 92 95 </domain>
      <domain for="d[4][]"> 13 37 51 68 75 86 93 </domain>
      <domain for="d[5][]"> 27 47 62 63 65 82 89 </domain>
      <domain for="d[6][]"> 17 31 62 64 86 92 93 </domain>
    </array>
    <array id="w" note="Which machine for operation j of job i" size="[7][7]"> 0..6 </array>
    <array id="sd" note="Start (dual) time of job i, machine k" size="[7][7]"> 0..559 </array>
  </variables>
  <constraints>
    <group>
      <intension> eq(%0,add(%1,%2)) </intension>
      <args> e[0] s[0][6] d[0][6] </args>
      <args> e[1] s[1][6] d[1][6] </args>
      <args> e[2] s[2][6] d[2][6] </args>
      <args> e[3] s[3][6] d[3][6] </args>
      <args> e[4] s[4][6] d[4][6] </args>
      <args> e[5] s[5][6] d[5][6] </args>
      <args> e[6] s[6][6] d[6][6] </args>
    </group>
    <group>
      <allDifferent> %... </allDifferent>
      <args> w[0][] </args>
      <args> w[1][] </args>
      <args> w[2][] </args>
      <args> w[3][] </args>
      <args> w[4][] </args>
      <args> w[5][] </args>
      <args> w[6][] </args>
    </group>
    <block>
      <group>
        <extension>
          <list> %0 %1 </list>
          <supports> (0,32)(1,67)(2,32)(3,43)(4,71)(5,72)(6,31) </supports>
        </extension>
        <args> w[0][0] d[0][0] </args>
        <args> w[0][1] d[0][1] </args>
        <args> w[0][2] d[0][2] </args>
        <args> w[0][3] d[0][3] </args>
        <args> w[0][4] d[0][4] </args>
        <args> w[0][5] d[0][5] </args>
        <args> w[0][6] d[0][6] </args>
      </group>
      <group>
        <extension>
          <list> %0 %1 </list>
          <supports> (0,13)(1,72)(2,35)(3,66)(4,41)(5,47)(6,60) </supports>
        </extension>
        <args> w[1][0] d[1][0] </args>
        <args> w[1][1] d[1][1] </args>
        <args> w[1][2] d[1][2] </args>
        <args> w[1][3] d[1][3] </args>
        <args> w[1][4] d[1][4] </args>
        <args> w[1][5] d[1][5] </args>
        <args> w[1][6] d[1][6] </args>
      </group>
      <group>
        <extension>
          <list> %0 %1 </list>
          <supports> (0,46)(1,94)(2,23)(3,44)(4,15)(5,73)(6,6) </supports>
        </extension>
        <args> w[2][0] d[2][0] </args>
        <args> w[2][1] d[2][1] </args>
        <args> w[2][2] d[2][2] </args>
        <args> w[2][3] d[2][3] </args>
        <args> w[2][4] d[2][4] </args>
        <args> w[2][5] d[2][5] </args>
        <args> w[2][6] d[2][6] </args>
      </group>
      <group>
        <extension>
          <list> %0 %1 </list>
          <supports> (0,90)(1,50)(2,92)(3,95)(4,69)(5,42)(6,20) </supports>
        </extension>
        <args> w[3][0] d[3][0] </args>
        <args> w[3][1] d[3][1] </args>
        <args> w[3][2] d[3][2] </args>
        <args> w[3][3] d[3][3] </args>
        <args> w[3][4] d[3][4] </args>
        <args> w[3][5] d[3][5] </args>
        <args> w[3][6] d[3][6] </args>
      </group>
      <group>
        <extension>
          <list> %0 %1 </list>
          <supports> (0,51)(1,37)(2,86)(3,75)(4,13)(5,93)(6,68) </supports>
        </extension>
        <args> w[4][0] d[4][0] </args>
        <args> w[4][1] d[4][1] </args>
        <args> w[4][2] d[4][2] </args>
        <args> w[4][3] d[4][3] </args>
        <args> w[4][4] d[4][4] </args>
        <args> w[4][5] d[4][5] </args>
        <args> w[4][6] d[4][6] </args>
      </group>
      <group>
        <extension>
          <list> %0 %1 </list>
          <supports> (0,89)(1,47)(2,65)(3,62)(4,63)(5,82)(6,27) </supports>
        </extension>
        <args> w[5][0] d[5][0] </args>
        <args> w[5][1] d[5][1] </args>
        <args> w[5][2] d[5][2] </args>
        <args> w[5][3] d[5][3] </args>
        <args> w[5][4] d[5][4] </args>
        <args> w[5][5] d[5][5] </args>
        <args> w[5][6] d[5][6] </args>
      </group>
      <group>
        <extension>
          <list> %0 %1 </list>
          <supports> (0,93)(1,31)(2,86)(3,64)(4,62)(5,17)(6,92) </supports>
        </extension>
        <args> w[6][0] d[6][0] </args>
        <args> w[6][1] d[6][1] </args>
        <args> w[6][2] d[6][2] </args>
        <args> w[6][3] d[6][3] </args>
        <args> w[6][4] d[6][4] </args>
        <args> w[6][5] d[6][5] </args>
        <args> w[6][6] d[6][6] </args>
      </group>
    </block>
    <group>
      <intension> le(add(%0,%1),%2) </intension>
      <args> s[0][0] d[0][0] s[0][1] </args>
      <args> s[0][1] d[0][1] s[0][2] </args>
      <args> s[0][2] d[0][2] s[0][3] </args>
      <args> s[0][3] d[0][3] s[0][4] </args>
      <args> s[0][4] d[0][4] s[0][5] </args>
      <args> s[0][5] d[0][5] s[0][6] </args>
      <args> s[1][0] d[1][0] s[1][1] </args>
      <args> s[1][1] d[1][1] s[1][2] </args>
      <args> s[1][2] d[1][2] s[1][3] </args>
      <args> s[1][3] d[1][3] s[1][4] </args>
      <args> s[1][4] d[1][4] s[1][5] </args>
      <args> s[1][5] d[1][5] s[1][6] </args>
      <args> s[2][0] d[2][0] s[2][1] </args>
      <args> s[2][1] d[2][1] s[2][2] </args>
      <args> s[2][2] d[2][2] s[2][3] </args>
      <args> s[2][3] d[2][3] s[2][4] </args>
      <args> s[2][4] d[2][4] s[2][5] </args>
      <args> s[2][5] d[2][5] s[2][6] </args>
      <args> s[3][0] d[3][0] s[3][1] </args>
      <args> s[3][1] d[3][1] s[3][2] </args>
      <args> s[3][2] d[3][2] s[3][3] </args>
      <args> s[3][3] d[3][3] s[3][4] </args>
      <args> s[3][4] d[3][4] s[3][5] </args>
      <args> s[3][5] d[3][5] s[3][6] </args>
      <args> s[4][0] d[4][0] s[4][1] </args>
      <args> s[4][1] d[4][1] s[4][2] </args>
      <args> s[4][2] d[4][2] s[4][3] </args>
      <args> s[4][3] d[4][3] s[4][4] </args>
      <args> s[4][4] d[4][4] s[4][5] </args>
      <args> s[4][5] d[4][5] s[4][6] </args>
      <args> s[5][0] d[5][0] s[5][1] </args>
      <args> s[5][1] d[5][1] s[5][2] </args>
      <args> s[5][2] d[5][2] s[5][3] </args>
      <args> s[5][3] d[5][3] s[5][4] </args>
      <args> s[5][4] d[5][4] s[5][5] </args>
      <args> s[5][5] d[5][5] s[5][6] </args>
      <args> s[6][0] d[6][0] s[6][1] </args>
      <args> s[6][1] d[6][1] s[6][2] </args>
      <args> s[6][2] d[6][2] s[6][3] </args>
      <args> s[6][3] d[6][3] s[6][4] </args>
      <args> s[6][4] d[6][4] s[6][5] </args>
      <args> s[6][5] d[6][5] s[6][6] </args>
    </group>
    <block class="channeling">
      <group>
        <element>
          <list> sd[0][] </list>
          <index> %0 </index>
          <value> %1 </value>
        </element>
        <args> w[0][0] s[0][0] </args>
        <args> w[0][1] s[0][1] </args>
        <args> w[0][2] s[0][2] </args>
        <args> w[0][3] s[0][3] </args>
        <args> w[0][4] s[0][4] </args>
        <args> w[0][5] s[0][5] </args>
        <args> w[0][6] s[0][6] </args>
      </group>
      <group>
        <element>
          <list> sd[1][] </list>
          <index> %0 </index>
          <value> %1 </value>
        </element>
        <args> w[1][0] s[1][0] </args>
        <args> w[1][1] s[1][1] </args>
        <args> w[1][2] s[1][2] </args>
        <args> w[1][3] s[1][3] </args>
        <args> w[1][4] s[1][4] </args>
        <args> w[1][5] s[1][5] </args>
        <args> w[1][6] s[1][6] </args>
      </group>
      <group>
        <element>
          <list> sd[2][] </list>
          <index> %0 </index>
          <value> %1 </value>
        </element>
        <args> w[2][0] s[2][0] </args>
        <args> w[2][1] s[2][1] </args>
        <args> w[2][2] s[2][2] </args>
        <args> w[2][3] s[2][3] </args>
        <args> w[2][4] s[2][4] </args>
        <args> w[2][5] s[2][5] </args>
        <args> w[2][6] s[2][6] </args>
      </group>
      <group>
        <element>
          <list> sd[3][] </list>
          <index> %0 </index>
          <value> %1 </value>
        </element>
        <args> w[3][0] s[3][0] </args>
        <args> w[3][1] s[3][1] </args>
        <args> w[3][2] s[3][2] </args>
        <args> w[3][3] s[3][3] </args>
        <args> w[3][4] s[3][4] </args>
        <args> w[3][5] s[3][5] </args>
        <args> w[3][6] s[3][6] </args>
      </group>
      <group>
        <element>
          <list> sd[4][] </list>
          <index> %0 </index>
          <value> %1 </value>
        </element>
        <args> w[4][0] s[4][0] </args>
        <args> w[4][1] s[4][1] </args>
        <args> w[4][2] s[4][2] </args>
        <args> w[4][3] s[4][3] </args>
        <args> w[4][4] s[4][4] </args>
        <args> w[4][5] s[4][5] </args>
        <args> w[4][6] s[4][6] </args>
      </group>
      <group>
        <element>
          <list> sd[5][] </list>
          <index> %0 </index>
          <value> %1 </value>
        </element>
        <args> w[5][0] s[5][0] </args>
        <args> w[5][1] s[5][1] </args>
        <args> w[5][2] s[5][2] </args>
        <args> w[5][3] s[5][3] </args>
        <args> w[5][4] s[5][4] </args>
        <args> w[5][5] s[5][5] </args>
        <args> w[5][6] s[5][6] </args>
      </group>
      <group>
        <element>
          <list> sd[6][] </list>
          <index> %0 </index>
          <value> %1 </value>
        </element>
        <args> w[6][0] s[6][0] </args>
        <args> w[6][1] s[6][1] </args>
        <args> w[6][2] s[6][2] </args>
        <args> w[6][3] s[6][3] </args>
        <args> w[6][4] s[6][4] </args>
        <args> w[6][5] s[6][5] </args>
        <args> w[6][6] s[6][6] </args>
      </group>
    </block>
    <block>
      <noOverlap>
        <origins> sd[][0] </origins>
        <lengths> 32 13 46 90 51 89 93 </lengths>
      </noOverlap>
      <noOverlap>
        <origins> sd[][1] </origins>
        <lengths> 67 72 94 50 37 47 31 </lengths>
      </noOverlap>
      <noOverlap>
        <origins> sd[][2] </origins>
        <lengths> 32 35 23 92 86 65 86 </lengths>
      </noOverlap>
      <noOverlap>
        <origins> sd[][3] </origins>
        <lengths> 43 66 44 95 75 62 64 </lengths>
      </noOverlap>
      <noOverlap>
        <origins> sd[][4] </origins>
        <lengths> 71 41 15 69 13 63 62 </lengths>
      </noOverlap>
      <noOverlap>
        <origins> sd[][5] </origins>
        <lengths> 72 47 73 42 93 82 17 </lengths>
      </noOverlap>
      <noOverlap>
        <origins> sd[][6] </origins>
        <lengths> 31 60 6 20 68 27 92 </lengths>
      </noOverlap>
    </block>
    <group class="redundantConstraints">
      <intension> ge(%0,%1) </intension>
      <args> e[0] 348 </args>
      <args> e[1] 334 </args>
      <args> e[2] 301 </args>
      <args> e[3] 458 </args>
      <args> e[4] 423 </args>
      <args> e[5] 435 </args>
      <args> e[6] 445 </args>
    </group>
  </constraints>
  <objectives>
    <minimize type="maximum"> e[] </minimize>
  </objectives>
</instance>
